
Gurobi 10.0.1 (linux64) logging started Fri 11 Aug 2023 02:32:26 AM CDT

Set parameter LogFile to value "/home/dlcole3/graph_abstraction/plasmoexamples/SHP_serial/SHP_reserve_requirements/gurobi_logs/logfile5.log"
Set parameter NodefileStart to value 0.0005
Set parameter TimeLimit to value 36000
Gurobi Optimizer version 10.0.1 build v10.0.1rc0 (linux64)

CPU model: Intel(R) Xeon(R) CPU E5-2698 v4 @ 2.20GHz, instruction set [SSE2|AVX|AVX2]
Thread count: 40 physical cores, 80 logical processors, using up to 8 threads


Warning: excessive time spent in model updates.
Consider calling update less frequently.

Optimize a model with 1105538 rows, 641709 columns and 4644125 nonzeros
Model fingerprint: 0xdbf98aa9
Variable types: 599982 continuous, 41727 integer (41727 binary)
Coefficient statistics:
  Matrix range     [5e-02, 2e+04]
  Objective range  [2e-01, 8e+04]
  Bounds range     [5e-02, 2e+04]
  RHS range        [9e-05, 7e+03]
Presolve removed 263141 rows and 118045 columns (presolve time = 5s) ...
Presolve removed 276865 rows and 124763 columns (presolve time = 10s) ...
Presolve removed 278961 rows and 127904 columns (presolve time = 15s) ...
Presolve removed 284740 rows and 132459 columns (presolve time = 20s) ...
Presolve removed 291611 rows and 132650 columns (presolve time = 25s) ...
Presolve removed 292311 rows and 133366 columns (presolve time = 30s) ...
Presolve removed 292351 rows and 133416 columns (presolve time = 35s) ...
Presolve removed 292651 rows and 133436 columns (presolve time = 40s) ...
Sparsify removed 205072 nonzeros (5%)
Presolve removed 292651 rows and 192111 columns (presolve time = 45s) ...
Presolve removed 292651 rows and 132110 columns
Presolve time: 45.46s
Presolved: 812887 rows, 509599 columns, 3966157 nonzeros
Variable types: 475935 continuous, 33664 integer (33602 binary)

Deterministic concurrent LP optimizer: primal simplex, dual simplex, and barrier
Showing barrier log only...

Root barrier log...

Elapsed ordering time = 5s
Elapsed ordering time = 19s
Elapsed ordering time = 21s
Elapsed ordering time = 25s
Elapsed ordering time = 32s
Elapsed ordering time = 35s
Elapsed ordering time = 40s
Elapsed ordering time = 45s
Elapsed ordering time = 50s
Elapsed ordering time = 55s
Elapsed ordering time = 58s
Elapsed ordering time = 60s
Elapsed ordering time = 65s
Ordering time: 69.33s

Barrier statistics:
 Dense cols : 213
 AA' NZ     : 2.384e+07
 Factor NZ  : 3.532e+08 (roughly 3.4 GB of memory)
 Factor Ops : 1.743e+12 (roughly 14 seconds per iteration)
 Threads    : 5

                  Objective                Residual
Iter       Primal          Dual         Primal    Dual     Compl     Time
   0  -2.15227890e+11 -1.79988954e+13  1.25e+04 1.06e+04  1.17e+08   137s
   1  -1.60019232e+11 -1.32917576e+13  9.74e+03 5.46e+06  7.98e+07   146s
   2  -1.14424501e+11 -8.61549077e+12  7.02e+03 8.33e+05  5.18e+07   159s
   3  -2.25628301e+10 -3.94153497e+12  1.53e+03 8.32e+00  1.17e+07   173s
   4  -6.96160743e+09 -1.59574035e+12  6.14e+02 1.16e+00  4.30e+06   188s
   5   2.00507577e+09 -7.50267375e+11  1.28e+02 4.74e-01  1.05e+06   203s
   6   3.39665123e+09 -2.99763494e+11  5.30e+01 1.33e-01  3.45e+05   220s
   7   3.84509834e+09 -1.11084243e+11  1.17e+01 3.89e-02  9.18e+04   236s
   8   2.76556169e+09 -3.76901024e+10  3.00e+00 1.04e-02  2.72e+04   253s
   9   7.99969248e+08 -6.40873401e+09  7.09e-01 2.27e-03  4.55e+03   271s
  10   1.10239678e+08 -7.19245682e+08  2.70e-02 2.30e-04  4.92e+02   289s
  11   7.97476706e+07 -2.82436520e+08  1.11e-02 2.08e-04  2.14e+02   303s
  12   5.10149214e+07 -2.08467582e+07  1.17e-03 7.90e-04  4.23e+01   322s
  13   4.42091818e+07  1.99976599e+06  5.94e-04 9.54e-04  2.48e+01   338s
  14   4.11387582e+07  1.24145156e+07  3.93e-04 7.03e-04  1.69e+01   355s
  15   3.85090919e+07  1.72494183e+07  2.44e-04 5.60e-04  1.25e+01   370s
  16   3.67371988e+07  2.43898671e+07  1.61e-04 2.93e-04  7.26e+00   388s
  17   3.54610070e+07  2.78011885e+07  1.10e-04 1.78e-04  4.51e+00   405s
  18   3.46604616e+07  2.96642164e+07  7.86e-05 1.13e-04  2.94e+00   420s
  19   3.40368852e+07  3.04484471e+07  5.57e-05 8.53e-05  2.11e+00   437s
  20   3.33841766e+07  3.09455763e+07  3.23e-05 6.68e-05  1.43e+00   454s
  21   3.31068462e+07  3.14210711e+07  2.28e-05 4.68e-05  9.92e-01   470s
  22   3.28709663e+07  3.16801941e+07  1.45e-05 3.57e-05  7.00e-01   486s
  23   3.26753087e+07  3.19172631e+07  8.15e-06 2.33e-05  4.46e-01   500s
  24   3.25925872e+07  3.19981992e+07  5.60e-06 1.87e-05  3.50e-01   515s
  25   3.25721137e+07  3.20922435e+07  4.99e-06 1.68e-05  2.82e-01   530s
  26   3.25196958e+07  3.21869066e+07  3.46e-06 7.16e-06  1.96e-01   544s
  27   3.24765686e+07  3.23003303e+07  2.25e-06 6.52e-06  1.04e-01   558s
  28   3.24749304e+07  3.23162968e+07  2.21e-06 5.35e-06  9.33e-02   572s
  29   3.24467299e+07  3.23308842e+07  1.47e-06 4.21e-06  6.81e-02   586s
  30   3.24278742e+07  3.23518794e+07  9.80e-07 2.40e-06  4.47e-02   601s
  31   3.24157792e+07  3.23688251e+07  6.75e-07 1.25e-06  2.76e-02   617s
  32   3.24080174e+07  3.23754587e+07  4.83e-07 8.07e-07  1.92e-02   632s
  33   3.23973768e+07  3.23837921e+07  1.09e-06 3.24e-07  7.99e-03   654s
  34   3.23901170e+07  3.23860380e+07  5.74e-07 1.27e-07  2.40e-03   683s
  35   3.23888681e+07  3.23867738e+07  2.59e-07 7.14e-08  1.23e-03   710s
  36   3.23887887e+07  3.23867920e+07  2.40e-07 7.01e-08  1.17e-03   729s
  37   3.23882184e+07  3.23873346e+07  1.03e-07 2.77e-08  5.20e-04   751s
  38   3.23880043e+07  3.23876391e+07  7.61e-08 6.32e-09  2.15e-04   772s
  39   3.23878718e+07  3.23876501e+07  4.48e-07 5.60e-09  1.30e-04   789s
  40   3.23878369e+07  3.23877173e+07  3.34e-07 1.94e-09  7.03e-05   805s
  41   3.23877857e+07  3.23877215e+07  1.62e-07 3.03e-09  3.78e-05   820s

Barrier solved model in 41 iterations and 820.33 seconds (776.46 work units)
Optimal objective 3.23877857e+07


Root crossover log...

  338510 DPushes remaining with DInf 0.0000000e+00               822s
  122983 DPushes remaining with DInf 0.0000000e+00               825s
   87753 DPushes remaining with DInf 0.0000000e+00               830s
   66751 DPushes remaining with DInf 0.0000000e+00               837s
   56422 DPushes remaining with DInf 0.0000000e+00               841s
   48031 DPushes remaining with DInf 0.0000000e+00               846s
   40507 DPushes remaining with DInf 0.0000000e+00               850s
   33027 DPushes remaining with DInf 0.0000000e+00               856s
   29495 DPushes remaining with DInf 0.0000000e+00               860s
   27236 DPushes remaining with DInf 0.0000000e+00               866s
   24466 DPushes remaining with DInf 0.0000000e+00               870s
   21501 DPushes remaining with DInf 0.0000000e+00               875s
   18057 DPushes remaining with DInf 0.0000000e+00               881s
   15836 DPushes remaining with DInf 0.0000000e+00               885s
   12550 DPushes remaining with DInf 0.0000000e+00               890s
    9097 DPushes remaining with DInf 0.0000000e+00               895s
    6596 DPushes remaining with DInf 0.0000000e+00               901s
    5682 DPushes remaining with DInf 0.0000000e+00               906s
    4298 DPushes remaining with DInf 0.0000000e+00               912s
    2879 DPushes remaining with DInf 0.0000000e+00               916s
    1504 DPushes remaining with DInf 0.0000000e+00               921s
     111 DPushes remaining with DInf 0.0000000e+00               925s
       0 DPushes remaining with DInf 0.0000000e+00               926s

  251909 PPushes remaining with PInf 5.7920758e-02               926s
   72361 PPushes remaining with PInf 3.1642467e-01               932s
   20623 PPushes remaining with PInf 2.4483199e-01               935s
   11529 PPushes remaining with PInf 1.9650282e-01               940s
    5513 PPushes remaining with PInf 1.7290471e-01               945s
       0 PPushes remaining with PInf 1.9844152e-04               950s

  Push phase complete: Pinf 1.9844152e-04, Dinf 4.8487230e+07    951s


Root simplex log...

Iteration    Objective       Primal Inf.    Dual Inf.      Time
  402208    3.2387744e+07   0.000000e+00   4.848723e+07    952s
  402996    3.2387744e+07   0.000000e+00   0.000000e+00    956s
  402996    3.2387744e+07   0.000000e+00   0.000000e+00    958s
Waiting for other threads to finish...        1079s
Waiting for other threads to finish...        1145s
Concurrent spin time: 248.37s (can be avoided by choosing Method=3)

Solved with barrier

Root relaxation: objective 3.238774e+07, 402996 iterations, 1156.65 seconds (950.21 work units)

    Nodes    |    Current Node    |     Objective Bounds      |     Work
 Expl Unexpl |  Obj  Depth IntInf | Incumbent    BestBd   Gap | It/Node Time

     0     0 3.2388e+07    0   99          - 3.2388e+07      -     - 1214s
     0     0 3.2388e+07    0   99          - 3.2388e+07      -     - 1216s
H    0     0                    3.308150e+07 3.2388e+07  2.10%     - 1262s

Explored 1 nodes (403320 simplex iterations) in 1263.05 seconds (1054.42 work units)
Thread count was 8 (of 80 available processors)

Solution count 2: 3.30815e+07 3.30815e+07 

Optimal solution found (tolerance 5.00e-02)
Best objective 3.308150231173e+07, best bound 3.238774374444e+07, gap 2.0971%

User-callback calls 281697, time in user-callback 1.46 sec
